NAME F-JSSP-SDST-SC-DL-ID
ROWS
 N  OBJ
 E  c0      
 E  c1      
 E  c2      
 E  c3      
 L  c4      
 L  c5      
 L  c6      
 L  c7      
 L  c8      
 L  c9      
 L  c10     
 L  c11     
 G  c12     
 G  c13     
 G  c14     
 G  c15     
 G  c16     
 G  c17     
 G  c18     
 G  c19     
 G  c20     
 G  c21     
 G  c22     
 G  c23     
 G  c24     
 G  c25     
 G  c26     
 G  c27     
 G  c28     
 G  c29     
 G  c30     
 G  c31     
 G  c32     
 G  c33     
 G  c34     
 G  c35     
 G  c36     
 G  c37     
 G  c38     
 G  c39     
 G  c40     
 G  c41     
 G  c42     
 G  c43     
 G  c44     
 G  c45     
 G  c46     
 G  c47     
 G  c48     
 G  c49     
 G  c50     
 G  c51     
 G  c52     
 G  c53     
COLUMNS
    MARKER    'MARKER'                 'INTORG'
    B0(11)    c0        1
    B0(11)    c4        -65000
    B0(11)    c12       -25
    B0(11)    c13       -65025
    B0(11)    c14       -25
    B0(11)    c15       -65000
    B0(11)    c16       -65000
    B0(11)    c19       -65000
    B0(11)    c20       -65000
    B0(11)    c36       -8
    B0(11)    c53       -25
    B1(11)    c0        1
    B1(11)    c5        -65000
    B1(11)    c12       -37
    B1(11)    c13       -37
    B1(11)    c14       -65037
    B1(11)    c17       -65000
    B1(11)    c18       -65000
    B1(11)    c21       -65000
    B1(11)    c22       -65000
    B1(11)    c38       -8
    B1(11)    c53       -37
    B2(9)     c1        1
    B2(9)     c6        -65000
    B2(9)     c13       -65000
    B2(9)     c23       -65000
    B2(9)     c24       -65000
    B2(9)     c27       -65000
    B2(9)     c28       -65000
    B2(9)     c40       -8
    B2(9)     c53       -32
    B3(9)     c1        1
    B3(9)     c7        -65000
    B3(9)     c14       -65000
    B3(9)     c25       -65000
    B3(9)     c26       -65000
    B3(9)     c29       -65000
    B3(9)     c30       -65000
    B3(9)     c42       -8
    B3(9)     c53       -24
    B4(11)    c2        1
    B4(11)    c8        -65000
    B4(11)    c15       -65000
    B4(11)    c16       -65000
    B4(11)    c23       -65000
    B4(11)    c24       -65000
    B4(11)    c31       -65000
    B4(11)    c32       -65000
    B4(11)    c44       -8
    B4(11)    c51       -45
    B4(11)    c53       -45
    B5(11)    c2        1
    B5(11)    c9        -65000
    B5(11)    c17       -65000
    B5(11)    c18       -65000
    B5(11)    c25       -65000
    B5(11)    c26       -65000
    B5(11)    c33       -65000
    B5(11)    c34       -65000
    B5(11)    c46       -8
    B5(11)    c51       -65
    B5(11)    c53       -65
    B6(11)    c3        1
    B6(11)    c10       -65000
    B6(11)    c19       -65000
    B6(11)    c20       -65000
    B6(11)    c27       -65000
    B6(11)    c28       -65000
    B6(11)    c31       -65000
    B6(11)    c32       -65000
    B6(11)    c48       -8
    B6(11)    c52       -21
    B6(11)    c53       -21
    B7(11)    c3        1
    B7(11)    c11       -65000
    B7(11)    c21       -65000
    B7(11)    c22       -65000
    B7(11)    c29       -65000
    B7(11)    c30       -65000
    B7(11)    c33       -65000
    B7(11)    c34       -65000
    B7(11)    c50       -8
    B7(11)    c52       -65
    B7(11)    c53       -65
    B8(0)     OBJ       0
    B9(0)     OBJ       0
    B10(4)    c15       -65000
    B10(4)    c16       65000
    B10(4)    c17       -65000
    B10(4)    c18       65000
    B11(4)    c19       -65000
    B11(4)    c20       65000
    B11(4)    c21       -65000
    B11(4)    c22       65000
    B12(0)    OBJ       0
    B13(0)    OBJ       0
    B14(4)    c23       -65000
    B14(4)    c24       65000
    B14(4)    c25       -65000
    B14(4)    c26       65000
    B15(4)    c27       -65000
    B15(4)    c28       65000
    B15(4)    c29       -65000
    B15(4)    c30       65000
    B16(0)    OBJ       0
    B17(0)    OBJ       0
    B18(0)    OBJ       0
    B19(4)    c31       -65000
    B19(4)    c32       65000
    B19(4)    c33       -65000
    B19(4)    c34       65000
    B20(0)    OBJ       0
    B21(0)    OBJ       0
    B22(0)    OBJ       0
    B23(0)    OBJ       0
    I24(13)   c4        1
    I24(13)   c12       -1
    I24(13)   c13       -1
    I24(13)   c14       -1
    I24(13)   c15       1
    I24(13)   c16       -1
    I24(13)   c19       1
    I24(13)   c20       -1
    I24(13)   c35       1
    I24(13)   c36       1
    I24(13)   c51       1
    I24(13)   c52       1
    I24(13)   c53       -1
    I25(13)   c5        1
    I25(13)   c12       -1
    I25(13)   c13       -1
    I25(13)   c14       -1
    I25(13)   c17       1
    I25(13)   c18       -1
    I25(13)   c21       1
    I25(13)   c22       -1
    I25(13)   c37       1
    I25(13)   c38       1
    I25(13)   c51       1
    I25(13)   c52       1
    I25(13)   c53       -1
    I26(11)   c6        1
    I26(11)   c12       1
    I26(11)   c13       1
    I26(11)   c14       1
    I26(11)   c23       1
    I26(11)   c24       -1
    I26(11)   c27       1
    I26(11)   c28       -1
    I26(11)   c39       1
    I26(11)   c40       1
    I26(11)   c53       -1
    I27(11)   c7        1
    I27(11)   c12       1
    I27(11)   c13       1
    I27(11)   c14       1
    I27(11)   c25       1
    I27(11)   c26       -1
    I27(11)   c29       1
    I27(11)   c30       -1
    I27(11)   c41       1
    I27(11)   c42       1
    I27(11)   c53       -1
    I28(11)   c8        1
    I28(11)   c15       -1
    I28(11)   c16       1
    I28(11)   c23       -1
    I28(11)   c24       1
    I28(11)   c31       1
    I28(11)   c32       -1
    I28(11)   c43       1
    I28(11)   c44       1
    I28(11)   c51       -1
    I28(11)   c53       -1
    I29(11)   c9        1
    I29(11)   c17       -1
    I29(11)   c18       1
    I29(11)   c25       -1
    I29(11)   c26       1
    I29(11)   c33       1
    I29(11)   c34       -1
    I29(11)   c45       1
    I29(11)   c46       1
    I29(11)   c51       -1
    I29(11)   c53       -1
    I30(11)   c10       1
    I30(11)   c19       -1
    I30(11)   c20       1
    I30(11)   c27       -1
    I30(11)   c28       1
    I30(11)   c31       -1
    I30(11)   c32       1
    I30(11)   c47       1
    I30(11)   c48       1
    I30(11)   c52       -1
    I30(11)   c53       -1
    I31(11)   c11       1
    I31(11)   c21       -1
    I31(11)   c22       1
    I31(11)   c29       -1
    I31(11)   c30       1
    I31(11)   c33       -1
    I31(11)   c34       1
    I31(11)   c49       1
    I31(11)   c50       1
    I31(11)   c52       -1
    I31(11)   c53       -1
    I32(1)    OBJ       1
    I32(1)    c53       1
    MARKER    'MARKER'                 'INTEND'
RHS
    RHS1      c0        1
    RHS1      c1        1
    RHS1      c2        1
    RHS1      c3        1
    RHS1      c13       -129997
    RHS1      c14       -129997
    RHS1      c15       -194952
    RHS1      c16       -129971
    RHS1      c17       -194932
    RHS1      c18       -129959
    RHS1      c19       -194975
    RHS1      c20       -129971
    RHS1      c21       -194932
    RHS1      c22       -129960
    RHS1      c23       -194952
    RHS1      c24       -129964
    RHS1      c25       -194932
    RHS1      c26       -129973
    RHS1      c27       -194975
    RHS1      c28       -129964
    RHS1      c29       -194931
    RHS1      c30       -129973
    RHS1      c31       -194975
    RHS1      c32       -129951
    RHS1      c33       -194932
    RHS1      c34       -129931
BOUNDS
 BV BND1      B0(11)  
 BV BND1      B1(11)  
 BV BND1      B2(9)   
 BV BND1      B3(9)   
 BV BND1      B4(11)  
 BV BND1      B5(11)  
 BV BND1      B6(11)  
 BV BND1      B7(11)  
 BV BND1      B8(0)   
 BV BND1      B9(0)   
 BV BND1      B10(4)  
 BV BND1      B11(4)  
 BV BND1      B12(0)  
 BV BND1      B13(0)  
 BV BND1      B14(4)  
 BV BND1      B15(4)  
 BV BND1      B16(0)  
 BV BND1      B17(0)  
 BV BND1      B18(0)  
 BV BND1      B19(4)  
 BV BND1      B20(0)  
 BV BND1      B21(0)  
 BV BND1      B22(0)  
 BV BND1      B23(0)  
 LI BND1      I24(13)   0
 LI BND1      I25(13)   0
 LI BND1      I26(11)   0
 LI BND1      I27(11)   0
 LI BND1      I28(11)   0
 LI BND1      I29(11)   0
 LI BND1      I30(11)   0
 LI BND1      I31(11)   0
 LI BND1      I32(1)    0
ENDATA
